loop__main__1407:
(set-info :source |printed by MathSAT|)
(declare-fun |main::i| () (_ BitVec 32))
(declare-fun SIZE () (_ BitVec 32))
(assert (let ((.def_452 (bvslt SIZE (_ bv100000 32))))(let ((.def_450 (bvslt (_ bv1 32) SIZE)))(let ((.def_465 (and .def_450 .def_452)))(let ((.def_231 (= |main::i| (_ bv1 32))))(let ((.def_1025 (or .def_231 .def_465)))(let ((.def_240 (= |main::i| (_ bv0 32))))(let ((.def_512 (not .def_240)))(let ((.def_513 (and .def_465 .def_512)))(let ((.def_397 (not .def_231)))(let ((.def_1024 (or .def_397 .def_513)))(let ((.def_1026 (and .def_1024 .def_1025))).def_1026))))))))))))
loop__main__1412:
(set-info :source |printed by MathSAT|)
(declare-fun SIZE () (_ BitVec 32))
(assert (let ((.def_454 (bvslt (_ bv0 32) SIZE)))(let ((.def_452 (bvslt SIZE (_ bv100000 32))))(let ((.def_544 (and .def_452 .def_454)))(let ((.def_450 (bvslt (_ bv1 32) SIZE)))(let ((.def_545 (and .def_450 .def_544)))(let ((.def_234 (bvand (_ bv1 32) SIZE)))(let ((.def_235 (= .def_234 (_ bv0 32))))(let ((.def_546 (and .def_235 .def_545))).def_546)))))))))
loop__main__1420:
(set-info :source |printed by MathSAT|)
(declare-fun |main::i| () (_ BitVec 32))
(declare-fun SIZE () (_ BitVec 32))
(assert (let ((.def_237 (bvsdiv SIZE (_ bv2 32))))(let ((.def_238 (bvslt .def_237 (_ bv1 32))))(let ((.def_700 (not .def_238)))(let ((.def_454 (bvslt (_ bv0 32) SIZE)))(let ((.def_452 (bvslt SIZE (_ bv100000 32))))(let ((.def_544 (and .def_452 .def_454)))(let ((.def_450 (bvslt (_ bv1 32) SIZE)))(let ((.def_545 (and .def_450 .def_544)))(let ((.def_240 (= |main::i| (_ bv0 32))))(let ((.def_699 (and .def_240 .def_545)))(let ((.def_701 (and .def_699 .def_700)))(let ((.def_234 (bvand (_ bv1 32) SIZE)))(let ((.def_235 (= .def_234 (_ bv0 32))))(let ((.def_702 (and .def_235 .def_701))).def_702)))))))))))))))
